\* Problem: Unknown *\

Maximize
 obj: + xp_0_0 + xp_1_0 + xp_1_1 + xp_2_0 + xp_3_0 + xp_3_1 + xp_4_0
 + xp_5_0 + xp_6_0 + xp_7_0 + xp_8_0 + xp_9_0 + xp_9_1 + xp_10_0
 + xp_11_0 + xp_11_1 + xp_12_0 + xp_13_0 + xp_13_1 + xp_14_0 + xp_14_1
 + xp_15_0 + xp_16_0 + xp_17_0 + xp_17_1 + xp_18_0 + xp_18_1 + xp_19_0
 + xp_19_1 + xp_20_0 + xp_21_0 + xp_22_0 + xp_22_1 + xp_23_0 + xp_24_0
 + xp_24_1 + xp_25_0 + xp_26_0 + xp_27_0 + xp_28_0 + xp_28_1 + xp_29_0
 + xp_30_0 + xp_31_0 + xp_32_0 + xp_32_1 + xp_33_0 + xp_34_0 + xp_34_1
 + xp_35_0 + xp_36_0 + xp_37_0 + xp_38_0 + xp_39_0 + xp_40_0 + xp_40_1
 + xp_41_0 + xp_42_0 + xp_42_1 + xp_42_2 + xp_43_0 + xp_44_0 + xp_45_0
 + xp_46_0 + xp_47_0 + xp_48_0 + xp_49_0 + xp_50_0 + xp_50_1 + xp_51_0
 + xp_52_0 + xp_53_0 + xp_54_0 + xp_55_0 + xp_56_0 + xp_57_0 + xp_57_1
 + xp_58_0 + xp_58_1 + xp_59_0 + xp_60_0 + xp_60_1 + xp_61_0 + xp_61_1
 + xp_62_0 + xp_63_0 + xp_63_1 + xp_64_0 + xp_65_0 + xp_66_0 + xp_67_0
 + xp_67_1 + xp_68_0 + xp_68_1 + xp_69_0 + xp_70_0 + xp_71_0 + xp_72_0
 + xp_73_0 + xp_74_0 + xp_75_0 + xp_76_0 + xp_77_0 + xp_77_1 + xp_78_0
 + xp_78_1 + xp_78_2 + xp_78_3 + xp_79_0 + xp_79_1 + xp_80_0 + xp_80_1
 + xp_81_0 + xp_81_1 + xp_82_0 + xp_83_0 + xp_84_0 + xp_85_0 + xp_85_1
 + xp_86_0 + xp_86_1 + xp_87_0 + xp_88_0 + xp_89_0 + xp_90_0 + xp_90_1
 + xp_91_0 + xp_91_1 + xp_92_0 + xp_93_0 + xp_94_0 + xp_94_1 + xp_95_0
 + xp_96_0 + xp_97_0 + xp_98_0 + xp_99_0 + xp_100_0 + xp_101_0
 + xp_102_0 + xp_103_0 + xp_104_0 + xp_105_0 + xp_106_0 + xp_107_0
 + xp_108_0 + xp_108_1 + xp_108_2 + xp_109_0 + xp_109_1 + xp_110_0
 + xp_111_0 + xp_111_1 + xp_111_2 + xp_112_0 + xp_112_1 + xp_112_2
 + xp_113_0 + xp_114_0 + xp_115_0 + xp_115_1 + xp_116_0 + xp_116_1
 + xp_117_0 + xp_118_0 + xp_119_0 + xp_120_0 + xp_120_1 + xp_121_0
 + xp_122_0 + xp_123_0 + xp_124_0 + xp_125_0 + xp_125_1 + xp_126_0
 + xp_126_1 + xp_126_2 + xp_126_3 + xp_127_0 + xp_127_1 + xp_128_0
 + xp_128_1 + xp_129_0 + xp_129_1 + xp_130_0 + xp_131_0 + xp_131_1
 + xp_131_2

Subject To
 r_1: + xp_128_1 + xp_122_0 + xp_121_0 + xp_108_2 + xp_107_0 + xp_78_3
 + xp_67_1 + xp_57_1 + xp_40_1 + xp_25_0 + xp_22_1 + xp_18_0 + xp_16_0
 + xp_13_1 + xp_4_0 <= 38635.1471900089
 r_2: + xp_131_2 + xp_131_1 + xp_127_1 + xp_126_1 + xp_120_0 + xp_94_1
 + xp_93_0 + xp_90_1 + xp_85_1 + xp_85_0 + xp_77_1 + xp_75_0 + xp_71_0
 + xp_66_0 + xp_65_0 + xp_61_1 + xp_55_0 + xp_52_0 + xp_48_0 + xp_42_2
 + xp_42_1 + xp_32_1 + xp_32_0 + xp_28_1 + xp_28_0 + xp_24_0 + xp_19_1
 + xp_19_0 + xp_1_1 <= 35516.1437016826
 r_3: + xp_126_3 + xp_114_0 + xp_95_0 + xp_76_0 + xp_34_0 <= 40000
 r_4: + xp_117_0 + xp_112_2 + xp_111_2 + xp_91_1 + xp_91_0 + xp_84_0
 + xp_79_1 + xp_79_0 + xp_46_0 + xp_43_0 + xp_40_1 + xp_40_0 + xp_34_1
 <= 37680.0606520091
 r_5: + xp_130_0 + xp_112_2 + xp_111_2 + xp_99_0 + xp_86_0 + xp_7_0
 + xp_2_0 <= 40000
 r_6: + xp_126_3 + xp_126_2 + xp_119_0 + xp_114_0 + xp_95_0 + xp_83_0
 + xp_81_0 + xp_70_0 + xp_68_1 + xp_58_1 + xp_53_0 + xp_45_0 + xp_34_0
 + xp_32_1 + xp_18_0 <= 39820.1058201058
 r_7: + xp_112_1 + xp_111_1 + xp_104_0 + xp_88_0 + xp_82_0 + xp_81_1
 + xp_78_2 + xp_50_1 + xp_44_0 + xp_27_0 + xp_18_1 + xp_3_1
 <= 37680.0606520091
 r_8: + xp_131_2 + xp_131_1 + xp_127_1 + xp_126_1 + xp_120_0 + xp_118_0
 + xp_103_0 + xp_94_1 + xp_90_1 + xp_77_1 + xp_71_0 + xp_61_1 + xp_55_0
 + xp_42_2 + xp_42_1 + xp_32_1 + xp_32_0 + xp_24_0 + xp_1_1
 <= 38635.1471900089
 r_9: + xp_131_0 + xp_127_0 + xp_122_0 + xp_120_1 + xp_108_2 + xp_78_3
 + xp_77_0 + xp_67_1 + xp_57_1 + xp_42_0 + xp_33_0 + xp_24_1 <= 40000
 r_10: + xp_112_2 + xp_112_1 + xp_111_2 + xp_111_1 + xp_106_0 + xp_99_0
 + xp_98_0 + xp_94_1 + xp_88_0 + xp_86_0 + xp_85_0 + xp_78_2 + xp_50_1
 + xp_26_0 + xp_24_0 + xp_8_0 + xp_7_0 + xp_3_1 + xp_2_0
 <= 39820.1058201058
 r_11: + xp_119_0 + xp_112_0 + xp_111_0 + xp_95_0 + xp_81_0 + xp_78_3
 + xp_78_1 + xp_78_0 + xp_59_0 + xp_53_0 + xp_50_0 + xp_49_0 + xp_45_0
 + xp_34_0 + xp_18_0 + xp_4_0 + xp_3_0 <= 37114.7318397828
 r_12: + xp_129_0 + xp_128_0 + xp_123_0 + xp_117_0 + xp_112_2 + xp_112_1
 + xp_111_2 + xp_111_1 + xp_108_1 + xp_101_0 + xp_91_1 + xp_82_0
 + xp_81_1 + xp_80_1 + xp_79_1 + xp_78_2 + xp_78_0 + xp_73_0 + xp_63_1
 + xp_60_0 + xp_50_1 + xp_46_0 + xp_44_0 + xp_40_0 + xp_18_1 + xp_17_1
 + xp_15_0 + xp_14_1 + xp_13_0 + xp_9_0 <= 36597.9381443299
 r_13: + xp_129_1 + xp_128_1 + xp_120_1 + xp_109_1 + xp_100_0 + xp_91_0
 + xp_90_0 + xp_80_0 + xp_79_0 + xp_68_0 + xp_63_0 + xp_60_1 + xp_40_1
 + xp_34_1 + xp_31_0 + xp_30_0 + xp_17_0 + xp_13_1 + xp_9_1
 <= 37114.7318397828
 r_14: + xp_131_2 + xp_131_1 + xp_131_0 + xp_126_3 + xp_126_2 + xp_125_1
 + xp_125_0 + xp_124_0 + xp_115_1 + xp_115_0 + xp_94_0 + xp_86_1
 + xp_85_1 + xp_77_1 + xp_77_0 + xp_68_1 + xp_65_0 + xp_58_1 + xp_56_0
 + xp_51_0 + xp_41_0 + xp_38_0 + xp_35_0 + xp_32_1 + xp_24_1 + xp_20_0
 + xp_19_1 + xp_19_0 + xp_12_0 + xp_0_0 <= 37680.0606520091
 r_15: + xp_131_2 + xp_131_0 + xp_126_3 + xp_126_2 + xp_125_0 + xp_124_0
 + xp_120_1 + xp_116_0 + xp_115_0 + xp_109_1 + xp_94_0 + xp_90_0
 + xp_89_0 + xp_86_1 + xp_85_1 + xp_77_1 + xp_77_0 + xp_68_1 + xp_68_0
 + xp_65_0 + xp_58_1 + xp_51_0 + xp_42_2 + xp_42_0 + xp_38_0 + xp_36_0
 + xp_32_1 + xp_28_1 + xp_24_1 + xp_19_1 + xp_12_0 + xp_11_0 + xp_0_0
 <= 36597.9381443299
 r_16: + xp_128_0 + xp_123_0 + xp_108_1 + xp_108_0 + xp_78_2 + xp_78_1
 + xp_78_0 + xp_73_0 + xp_67_0 + xp_57_0 + xp_46_0 + xp_44_0 + xp_40_0
 + xp_22_0 + xp_18_1 + xp_13_0 + xp_6_0 <= 36597.9381443299
 r_17: + xp_129_0 + xp_126_0 + xp_112_2 + xp_112_1 + xp_111_2 + xp_111_1
 + xp_109_0 + xp_97_0 + xp_91_1 + xp_81_1 + xp_80_1 + xp_79_1 + xp_63_1
 + xp_62_0 + xp_61_0 + xp_60_0 + xp_47_0 + xp_22_1 + xp_17_1 + xp_9_0
 + xp_1_0 <= 35516.1437016826
 r_18: + xp_126_1 + xp_126_0 + xp_106_0 + xp_99_0 + xp_98_0 + xp_94_1
 + xp_92_0 + xp_86_0 + xp_85_0 + xp_68_0 + xp_58_0 + xp_48_0 + xp_32_0
 + xp_30_0 + xp_26_0 + xp_24_0 + xp_5_0 + xp_2_0 <= 37114.7318397828
 r_19: + xp_131_1 + xp_125_1 + xp_116_1 + xp_115_1 + xp_110_0 + xp_108_1
 + xp_78_0 + xp_56_0 + xp_42_1 + xp_28_0 + xp_19_0 + xp_14_1 + xp_11_1
 + xp_3_0 <= 37114.7318397828
 r_20: + xp_129_1 + xp_128_1 + xp_119_0 + xp_112_0 + xp_111_0 + xp_108_2
 + xp_108_0 + xp_107_0 + xp_95_0 + xp_91_0 + xp_81_0 + xp_80_0 + xp_79_0
 + xp_78_3 + xp_78_1 + xp_69_0 + xp_64_0 + xp_63_0 + xp_60_1 + xp_50_0
 + xp_49_0 + xp_45_0 + xp_40_1 + xp_18_0 + xp_17_0 + xp_14_0 + xp_13_1
 + xp_10_0 + xp_9_1 + xp_4_0 <= 35516.1437016826
 r_21: + xp_126_3 + xp_113_0 + xp_86_1 + xp_77_1 + xp_77_0 + xp_65_0
 + xp_38_0 + xp_20_0 + xp_0_0 <= 37680.0606520091
 r_22: + xp_126_2 + xp_124_0 + xp_105_0 + xp_94_0 + xp_85_1 + xp_83_0
 + xp_68_1 + xp_58_1 + xp_41_0 + xp_32_1 + xp_24_1 <= 37680.0606520091
 r_23: + xp_128_1 + xp_128_0 + xp_117_0 + xp_112_2 + xp_112_1 + xp_111_2
 + xp_111_1 + xp_104_0 + xp_100_0 + xp_91_1 + xp_91_0 + xp_84_0
 + xp_82_0 + xp_81_1 + xp_80_1 + xp_80_0 + xp_79_1 + xp_79_0 + xp_78_2
 + xp_73_0 + xp_60_1 + xp_60_0 + xp_50_1 + xp_46_0 + xp_44_0 + xp_40_1
 + xp_40_0 + xp_34_1 + xp_21_0 + xp_18_1 + xp_15_0 + xp_9_1 + xp_9_0
 + xp_3_1 <= 37680.0606520091
 r_24: + xp_128_0 + xp_126_1 + xp_103_0 + xp_94_1 + xp_90_1 + xp_61_1
 + xp_40_0 + xp_39_0 + xp_22_0 + xp_18_1 + xp_13_0 + xp_1_1 <= 40000
 r_25: + xp_131_0 + xp_127_0 + xp_126_3 + xp_126_2 + xp_126_0 + xp_120_1
 + xp_94_0 + xp_90_0 + xp_89_0 + xp_77_0 + xp_74_0 + xp_61_0 + xp_42_0
 + xp_38_0 + xp_24_1 + xp_12_0 + xp_1_0 <= 36597.9381443299
 r_26: + xp_128_1 + xp_121_0 + xp_112_2 + xp_112_1 + xp_112_0 + xp_108_2
 + xp_107_0 + xp_81_1 + xp_81_0 + xp_79_1 + xp_79_0 + xp_78_3 + xp_67_1
 + xp_64_0 + xp_60_1 + xp_60_0 + xp_57_1 + xp_47_0 + xp_40_1 + xp_37_0
 + xp_29_0 + xp_25_0 + xp_22_1 + xp_18_0 + xp_17_1 + xp_17_0 + xp_13_1
 + xp_4_0 <= 35516.1437016826
 r_27: + xp_131_2 + xp_127_1 + xp_125_0 + xp_116_0 + xp_115_0 + xp_108_0
 + xp_86_1 + xp_85_1 + xp_78_1 + xp_77_1 + xp_72_0 + xp_67_0 + xp_65_0
 + xp_58_1 + xp_57_0 + xp_52_0 + xp_50_0 + xp_42_2 + xp_32_1 + xp_28_1
 + xp_23_0 + xp_19_1 + xp_14_0 + xp_11_0 <= 35516.1437016826
 r_28: + xp_131_1 + xp_126_1 + xp_126_0 + xp_125_1 + xp_120_0 + xp_116_1
 + xp_115_1 + xp_109_0 + xp_99_0 + xp_98_0 + xp_96_0 + xp_94_1 + xp_92_0
 + xp_90_1 + xp_86_0 + xp_85_0 + xp_75_0 + xp_58_0 + xp_54_0 + xp_48_0
 + xp_42_1 + xp_32_0 + xp_28_0 + xp_26_0 + xp_24_0 + xp_19_0 + xp_11_1
 <= 35516.1437016826
 r_29: + xp_129_1 + xp_129_0 + xp_95_0 + xp_93_0 + xp_87_0 + xp_71_0
 + xp_62_0 + xp_49_0 + xp_45_0 + xp_10_0 + xp_9_1 + xp_9_0 + xp_1_1
 + xp_1_0 <= 35516.1437016826
 r_30: + xp_125_1 + xp_125_0 + xp_121_0 + xp_102_0 + xp_99_0 + xp_96_0
 + xp_92_0 + xp_57_1 + xp_57_0 + xp_37_0 + xp_26_0 + xp_23_0 + xp_11_1
 + xp_11_0 <= 35516.1437016826

Bounds
 0 <= xp_0_0 <= 235.941486323091
 0 <= xp_1_0 <= 104.318901375094
 0 <= xp_1_1 <= 78.2391760313201
 0 <= xp_2_0 <= 115.00499822173
 0 <= xp_3_0 <= 156.252390543416
 0 <= xp_3_1 <= 26.0420650905694
 0 <= xp_4_0 <= 788.822248547785
 0 <= xp_5_0 <= 1083.2877683499
 0 <= xp_6_0 <= 1791.77128175024
 0 <= xp_7_0 <= 638.228311048271
 0 <= xp_8_0 <= 1509.63007980914
 0 <= xp_9_0 <= 46.378601820732
 0 <= xp_9_1 <= 61.838135760976
 0 <= xp_10_0 <= 54.8333286650311
 0 <= xp_11_0 <= 23.7259595185231
 0 <= xp_11_1 <= 17.7944696388923
 0 <= xp_12_0 <= 2066.99241216511
 0 <= xp_13_0 <= 215.962721998366
 0 <= xp_13_1 <= 35.9937869997277
 0 <= xp_14_0 <= 94.2541987063232
 0 <= xp_14_1 <= 125.672264941764
 0 <= xp_15_0 <= 507.076479265324
 0 <= xp_16_0 <= 2640.76519985472
 0 <= xp_17_0 <= 212.168451488062
 0 <= xp_17_1 <= 84.867380595225
 0 <= xp_18_0 <= 205.135399202215
 0 <= xp_18_1 <= 153.851549401661
 0 <= xp_19_0 <= 604.898986962726
 0 <= xp_19_1 <= 453.674240222045
 0 <= xp_20_0 <= 128.251992286239
 0 <= xp_21_0 <= 274.496170540691
 0 <= xp_22_0 <= 880.073042061089
 0 <= xp_22_1 <= 352.029216824436
 0 <= xp_23_0 <= 51.9993946114297
 0 <= xp_24_0 <= 194.665848811501
 0 <= xp_24_1 <= 145.999386608626
 0 <= xp_25_0 <= 578.847506808856
 0 <= xp_26_0 <= 15.355968243933
 0 <= xp_27_0 <= 337.96311225274
 0 <= xp_28_0 <= 381.498364956569
 0 <= xp_28_1 <= 286.123773717427
 0 <= xp_29_0 <= 2448.38721142537
 0 <= xp_30_0 <= 183.414848166805
 0 <= xp_31_0 <= 190.664446908576
 0 <= xp_32_0 <= 1930.10680683185
 0 <= xp_32_1 <= 321.684467805309
 0 <= xp_33_0 <= 8062.01513895103
 0 <= xp_34_0 <= 219.01320250789
 0 <= xp_34_1 <= 292.017603343854
 0 <= xp_35_0 <= 261.117365589968
 0 <= xp_36_0 <= 319.048250081028
 0 <= xp_37_0 <= 364.984343926613
 0 <= xp_38_0 <= 334.931461869817
 0 <= xp_39_0 <= 1573.95379228158
 0 <= xp_40_0 <= 606.753754433024
 0 <= xp_40_1 <= 242.701501773209
 0 <= xp_41_0 <= 79.9433024888014
 0 <= xp_42_0 <= 259.62978558841
 0 <= xp_42_1 <= 64.9074463971024
 0 <= xp_42_2 <= 129.814892794205
 0 <= xp_43_0 <= 492.247754566247
 0 <= xp_44_0 <= 458.767789467886
 0 <= xp_45_0 <= 42.5749162471275
 0 <= xp_46_0 <= 1606.1815539609
 0 <= xp_47_0 <= 879.310421933708
 0 <= xp_48_0 <= 2907.68224443811
 0 <= xp_49_0 <= 88.1155774340704
 0 <= xp_50_0 <= 448.382974646882
 0 <= xp_50_1 <= 336.287230985162
 0 <= xp_51_0 <= 709.867527705589
 0 <= xp_52_0 <= 662.679230440971
 0 <= xp_53_0 <= 190.005392477506
 0 <= xp_54_0 <= 3695.12047868065
 0 <= xp_55_0 <= 1185.70482693819
 0 <= xp_56_0 <= 95.8265142775904
 0 <= xp_57_0 <= 176.701908033191
 0 <= xp_57_1 <= 29.4503180055318
 0 <= xp_58_0 <= 3898.7400526914
 0 <= xp_58_1 <= 649.7900087819
 0 <= xp_59_0 <= 10649.0674026735
 0 <= xp_60_0 <= 290.643004101908
 0 <= xp_60_1 <= 387.52400546921
 0 <= xp_61_0 <= 1383.52472195553
 0 <= xp_61_1 <= 1037.64354146665
 0 <= xp_62_0 <= 131.283642669161
 0 <= xp_63_0 <= 113.037249991821
 0 <= xp_63_1 <= 18.8395416653034
 0 <= xp_64_0 <= 994.842663700294
 0 <= xp_65_0 <= 522.630163838578
 0 <= xp_66_0 <= 1680.78651555804
 0 <= xp_67_0 <= 289.136593973747
 0 <= xp_67_1 <= 115.654637589499
 0 <= xp_68_0 <= 842.309223160773
 0 <= xp_68_1 <= 631.73191737058
 0 <= xp_69_0 <= 1719.40710521875
 0 <= xp_70_0 <= 631.967293953105
 0 <= xp_71_0 <= 70.9142567831412
 0 <= xp_72_0 <= 599.344099615136
 0 <= xp_73_0 <= 923.467068815404
 0 <= xp_74_0 <= 953.71766720152
 0 <= xp_75_0 <= 1764.88186096258
 0 <= xp_76_0 <= 1722.96599914652
 0 <= xp_77_0 <= 490.67543899498
 0 <= xp_77_1 <= 81.7792398324966
 0 <= xp_78_0 <= 4001.11003596319
 0 <= xp_78_1 <= 4001.11003596319
 0 <= xp_78_2 <= 12003.3301078896
 0 <= xp_78_3 <= 8002.22007192637
 0 <= xp_79_0 <= 609.267576334391
 0 <= xp_79_1 <= 456.950682250793
 0 <= xp_80_0 <= 128.948706970513
 0 <= xp_80_1 <= 96.7115302278845
 0 <= xp_81_0 <= 223.814884791401
 0 <= xp_81_1 <= 37.3024807985668
 0 <= xp_82_0 <= 219.992369091194
 0 <= xp_83_0 <= 504.308450654829
 0 <= xp_84_0 <= 890.843874477434
 0 <= xp_85_0 <= 292.196489546573
 0 <= xp_85_1 <= 116.878595818629
 0 <= xp_86_0 <= 122.584124179036
 0 <= xp_86_1 <= 49.0336496716143
 0 <= xp_87_0 <= 141.43308090764
 0 <= xp_88_0 <= 425.683257028168
 0 <= xp_89_0 <= 2223.25421777183
 0 <= xp_90_0 <= 15519.4608181549
 0 <= xp_90_1 <= 6207.78432726195
 0 <= xp_91_0 <= 1167.62790540027
 0 <= xp_91_1 <= 1556.83720720036
 0 <= xp_92_0 <= 66.9599301967207
 0 <= xp_93_0 <= 130.624588238091
 0 <= xp_94_0 <= 169.565290051032
 0 <= xp_94_1 <= 67.8261160204128
 0 <= xp_95_0 <= 61.423872975732
 0 <= xp_96_0 <= 115.598147209693
 0 <= xp_97_0 <= 528.29803194578
 0 <= xp_98_0 <= 143.278433314637
 0 <= xp_99_0 <= 16.4104553336451
 0 <= xp_100_0 <= 504.110734325508
 0 <= xp_101_0 <= 250.440683806632
 0 <= xp_102_0 <= 75.1322051419897
 0 <= xp_103_0 <= 1443.06558227106
 0 <= xp_104_0 <= 132.206318872659
 0 <= xp_105_0 <= 1453.21502050954
 0 <= xp_106_0 <= 41.5204291574154
 0 <= xp_107_0 <= 450.793230851938
 0 <= xp_108_0 <= 243.153424811657
 0 <= xp_108_1 <= 243.153424811657
 0 <= xp_108_2 <= 364.730137217486
 0 <= xp_109_0 <= 692.1013032566
 0 <= xp_109_1 <= 276.84052130264
 0 <= xp_110_0 <= 133.524427734799
 0 <= xp_111_0 <= 2094.09837940869
 0 <= xp_111_1 <= 418.819675881738
 0 <= xp_111_2 <= 418.819675881738
 0 <= xp_112_0 <= 3351.62130920692
 0 <= xp_112_1 <= 670.324261841384
 0 <= xp_112_2 <= 670.324261841384
 0 <= xp_113_0 <= 426.408216902345
 0 <= xp_114_0 <= 2403.43969922639
 0 <= xp_115_0 <= 126.538450765456
 0 <= xp_115_1 <= 94.9038380740923
 0 <= xp_116_0 <= 91.4767550325278
 0 <= xp_116_1 <= 68.6075662743959
 0 <= xp_117_0 <= 1947.83537102764
 0 <= xp_118_0 <= 3162.14316027427
 0 <= xp_119_0 <= 62.9396981671931
 0 <= xp_120_0 <= 1864.06955283863
 0 <= xp_120_1 <= 310.678258806438
 0 <= xp_121_0 <= 75.7253541299528
 0 <= xp_122_0 <= 2280.13061517317
 0 <= xp_123_0 <= 515.051037881272
 0 <= xp_124_0 <= 138.005997866076
 0 <= xp_125_0 <= 11.7217538097465
 0 <= xp_125_1 <= 15.629005079662
 0 <= xp_126_0 <= 3634.12969861676
 0 <= xp_126_1 <= 10902.3890958503
 0 <= xp_126_2 <= 7268.25939723352
 0 <= xp_126_3 <= 3634.12969861676
 0 <= xp_127_0 <= 330.393401358735
 0 <= xp_127_1 <= 247.795051019051
 0 <= xp_128_0 <= 232.627384041138
 0 <= xp_128_1 <= 174.470538030854
 0 <= xp_129_0 <= 21.0426664777377
 0 <= xp_129_1 <= 28.0568886369836
 0 <= xp_130_0 <= 404.593515233925
 0 <= xp_131_0 <= 439.758776663165
 0 <= xp_131_1 <= 219.879388331582
 0 <= xp_131_2 <= 109.939694165791

End
